NAME : XML100_3361_03
DIMENSION : 101
NB_CLUSTERS : 4
CLUSTERING_ALG : KMedoids
CLUSTERING_PARAMS : k(3)
CLUSTERS
1 0
2 7 9 12 13 16 18 19 20 22 23 26 29 30 35 37 38 42 45 48 49 51 53 54 57 58 59 61 62 66 67 70 71 72 79 80 87 89 90 94 95 97 98 100
3 2 5 10 14 15 21 25 28 32 36 40 43 44 46 47 52 64 65 69 74 76 77 78 83 86 92 93 99
4 1 3 4 6 8 11 17 24 27 31 33 34 39 41 50 55 56 60 63 68 73 75 81 82 84 85 88 91 96
EOF